Route #1: 28 60 96 18 32 29 40 51 53
Route #2: 59 13 42 22 76 89 97 55 69
Route #3: 20 64 73 11 87 101 63 9 50
Route #4: 41 48 49 83 108 58 14 24
Route #5: 71 45 82 95 38 8 36 74
Route #6: 2 91 17 30 79 75 33 80
Route #7: 92 39 109 4 15
Route #8: 46 35 68 107 43 98 93 21 106
Route #9: 7 78 12 86 52 90 47 6
Route #10: 99 67 16 54 27 88 85 19 110
Route #11: 57 103 34 10 102 5 25 104 26 70
Route #12: 31 56 77 84 23 62 61 105 94 72
Route #13: 81 3 44 65 37 66 100
